98 100
12 78 1
44 29 1
45 40 1
34 47 1
5 16 1
77 92 1
43 44 1
23 16 1
10 26 1
22 18 2
4 10 1
24 47 1
26 47 1
29 4 1
26 37 1
86 89 1
4 30 1
47 3 1
10 84 1
11 44 2
44 25 1
84 13 1
5 27 1
47 10 1
97 32 1
68 85 1
12 39 1
44 92 1
8 100 1
31 13 1
3 27 1
32 29 1
37 75 1
12 99 1
82 28 1
19 21 1
14 21 1
4 46 1
7 94 1
17 24 1
2 39 1
8 5 1
66 15 1
26 39 1
3 79 1
23 25 1
7 1 1
48 15 1
14 11 1
50 8 1
24 99 1
31 3 1
91 15 1
89 51 1
4 8 1
25 3 1
81 30 1
39 7 1
45 29 1
32 14 1
69 56 1
2 25 1
97 61 1
50 38 1
28 45 1
83 4 1
11 6 1
29 22 1
48 45 1
37 12 1
21 19 1
86 7 1
57 96 1
25 30 1
82 27 1
72 80 1
77 10 1
24 9 1
92 47 1
28 16 1
87 86 1
90 50 1
14 28 1
96 13 1
19 23 1
7 3 1
2 21 1
23 21 1
63 72 1
42 17 1
2 26 1
13 94 1
78 33 1
38 44 1
13 42 1
64 73 1
90 5 1
95 81 1
100 100 
100 100 
100 100 
100 100 
100 100 
100 100 
100 100 
100 100 
100 100 
100 100 
100 100 
100 100 
100 100 
100 100 
100 100 
100 100 
100 100 
100 100 
100 100 
100 100 
100 100 
100 100 
100 100 
100 100 
100 100 
100 100 
100 100 
100 100 
100 100 
100 100 
100 100 
100 100 
100 100 
100 100 
100 100 
100 100 
100 100 
100 100 
100 100 
100 100 
100 100 
100 100 
100 100 
100 100 
100 100 
100 100 
100 100 
100 100 
100 100 
100 100 
100 100 
100 100 
100 100 
100 100 
100 100 
100 100 
100 100 
100 100 
100 100 
100 100 
100 100 
100 100 
100 100 
100 100 
100 100 
100 100 
100 100 
100 100 
100 100 
100 100 
100 100 
100 100 
100 100 
100 100 
100 100 
100 100 
100 100 
100 100 
100 100 
100 100 
100 100 
100 100 
100 100 
100 100 
100 100 
100 100 
100 100 
100 100 
100 100 
100 100 
100 100 
100 100 
100 100 
100 100 
100 100 
100 100 
100 100 
100 100 
100 100 
100 100 
100 100 
